files/upTests/__failed/123-nested-funcs/0001.eprime.solution
language ESSENCE' 1.0
$ minion Nodes: 7
$ minion TotalTime: 0.000979
$ Savile Row TotalTime: 0.226
letting fs_Explicit_Explicit_Matrix1D_Explicit_Occurrence be [[[[[false, true, true, true;int(1..4)], 
[true, false, true, true;int(1..4)];int(1..2)], 
[[false, true, true, true;int(1..4)], 
[true, false, true, true;int(1..4)];int(1..2)];int(1..2)];int(1..1)];int(1..1)]
